NAME: Tnm187
COMMENT: Imported from tnm log files (not double checked for validity should be 2945939)
TYPE: TOUR
DIMENSION: 187
TOUR_SECTION:
1
4
7
10
13
161
164
16
19
22
25
28
31
34
37
40
43
46
49
52
55
58
61
64
67
70
73
76
79
82
85
88
91
94
97
100
103
106
109
112
115
118
121
124
127
130
133
136
139
142
145
159
148
151
154
2
5
8
11
14
17
20
162
165
168
171
174
177
180
23
26
29
32
35
38
41
44
47
50
53
56
59
62
65
68
71
74
77
80
83
86
89
92
95
98
101
104
107
110
113
116
119
122
125
128
131
134
137
163
160
140
143
146
149
152
155
3
6
157
9
12
15
18
21
24
27
30
33
36
39
42
45
48
51
54
57
60
63
66
69
72
75
166
169
172
175
178
181
184
187
186
183
185
182
179
176
173
170
167
78
81
84
87
90
93
96
99
102
105
108
111
114
117
120
123
126
129
132
135
138
141
144
147
158
150
153
156
-1
EOF
